c User generated cnf file
p cnf 14 22
7 -13 14 0 
-6 5 9 0 
-12 7 8 0 
10 -13 6 0 
-8 12 1 0 
12 -12 2 0 
3 -4 13 0 
3 12 -1 0 
-13 10 1 0 
1 -1 9 0 
-5 11 9 0 
-5 7 3 0 
2 -3 13 0 
12 -3 5 0 
-5 5 14 0 
12 -6 7 0 
1 -4 2 0 
11 -14 13 0 
4 -9 1 0 
2 2 -10 0 
10 -4 1 0 
9 1 -1 0 
